SDVRP instances/custom_instances/p01_2_splitx10_0.vrp
NAME:p01_2_splitx10_
BEST_KNOWN: 0
COMMENT: 0
DIMENSION: 225
CAPACITY: 1600
EDGE_WEIGHT_FORMAT: FUNCTION
EDGE_WEIGHT_TYPE: EXACT_2D
NODE_COORD_SECTION
1 0.00000 0.00000
2 8 -38
3 8 -38
4 8 -38
5 8 -38
6 8 -38
7 8 -38
8 10 -41
9 10 -41
10 10 -41
11 10 -41
12 10 -41
13 10 -41
14 -39 45
15 -39 45
16 -39 45
17 28 -6
18 28 -6
19 28 -6
20 28 -6
21 -26 20
22 -26 20
23 -26 20
24 -26 20
25 -26 20
26 -39 -36
27 -39 -36
28 10 27
29 10 27
30 10 27
31 10 27
32 14 16
33 14 16
34 14 16
35 14 16
36 14 16
37 12 20
38 12 20
39 12 20
40 12 20
41 12 20
42 8 -19
43 8 -19
44 8 -19
45 8 -19
46 8 -19
47 8 -19
48 8 -19
49 40 -47
50 40 -47
51 40 -47
52 40 -47
53 40 -47
54 -42 -36
55 -42 -36
56 -42 -36
57 -42 -36
58 24 17
59 24 17
60 24 17
61 -2 -23
62 -2 -23
63 -2 -23
64 -2 -23
65 -16 -2
66 -16 -2
67 -16 -2
68 40 -43
69 40 -43
70 40 -43
71 40 -43
72 14 28
73 14 28
74 14 28
75 19 -25
76 19 -25
77 19 -25
78 19 -25
79 18 -24
80 18 -24
81 18 -24
82 18 -24
83 -47 -2
84 -47 -2
85 -47 -2
86 19 15
87 19 15
88 19 15
89 19 15
90 14 1
91 14 1
92 14 1
93 -40 40
94 -40 40
95 -40 40
96 -40 40
97 4 -3
98 4 -3
99 4 -3
100 4 -3
101 4 -3
102 4 -3
103 4 -3
104 23 35
105 23 35
106 23 35
107 23 35
108 -46 -12
109 -46 -12
110 -46 -12
111 26 -23
112 26 -23
113 26 -23
114 26 -23
115 41 -7
116 41 -7
117 41 -7
118 41 -7
119 41 -7
120 41 -7
121 -8 -45
122 -8 -45
123 -8 -45
124 -8 -45
125 13 -4
126 13 -4
127 13 -4
128 10 23
129 10 23
130 10 23
131 10 23
132 10 23
133 10 23
134 2 -43
135 2 -43
136 2 -43
137 2 -43
138 2 -43
139 2 -43
140 -50 -24
141 -50 -24
142 -50 -24
143 -50 -24
144 -50 -24
145 -50 -24
146 -50 -24
147 33 34
148 33 34
149 33 34
150 35 -27
151 35 -27
152 35 -27
153 35 -27
154 45 44
155 45 44
156 45 44
157 45 44
158 45 44
159 45 44
160 -35 -18
161 -35 -18
162 -35 -18
163 -35 -18
164 -47 -17
165 -47 -17
166 -47 -17
167 -47 -17
168 -47 -17
169 3 19
170 3 19
171 3 19
172 3 19
173 3 19
174 3 19
175 -18 39
176 -18 39
177 -18 39
178 -18 39
179 -18 39
180 -18 39
181 40 -26
182 40 -26
183 18 -11
184 18 -11
185 18 -11
186 -4 13
187 -4 13
188 -4 13
189 -4 13
190 -4 13
191 -4 13
192 -14 50
193 -14 50
194 -14 50
195 -14 50
196 -14 50
197 -6 37
198 -6 37
199 -6 37
200 3 -39
201 3 -39
202 3 -39
203 3 -39
204 3 -39
205 -17 32
206 -17 32
207 -17 32
208 -17 32
209 -17 32
210 -17 32
211 0 43
212 0 43
213 0 43
214 0 43
215 0 43
216 -20 0
217 -20 0
218 -20 0
219 -20 0
220 -20 0
221 -20 0
222 4 24
223 4 24
224 4 24
225 4 24
DEMAND_SECTION
1 0
2 160
3 80
4 16
5 16
6 16
7 2
8 320
9 80
10 16
11 16
12 16
13 2
14 320
15 320
16 160
17 160
18 80
19 16
20 14
21 320
22 16
23 16
24 16
25 12
26 320
27 80
28 320
29 160
30 16
31 14
32 160
33 16
34 16
35 16
36 12
37 320
38 160
39 16
40 16
41 8
42 320
43 320
44 80
45 16
46 16
47 16
48 12
49 160
50 16
51 16
52 16
53 2
54 160
55 80
56 16
57 14
58 320
59 16
60 14
61 160
62 80
63 16
64 4
65 320
66 320
67 10
68 320
69 16
70 16
71 8
72 320
73 320
74 10
75 320
76 80
77 16
78 14
79 320
80 16
81 16
82 8
83 160
84 80
85 10
86 320
87 160
88 16
89 4
90 320
91 160
92 10
93 320
94 80
95 16
96 4
97 320
98 160
99 80
100 16
101 16
102 16
103 2
104 320
105 320
106 16
107 4
108 320
109 320
110 10
111 320
112 160
113 80
114 10
115 320
116 320
117 16
118 16
119 16
120 2
121 320
122 80
123 16
124 4
125 320
126 320
127 80
128 320
129 320
130 80
131 16
132 16
133 8
134 320
135 16
136 16
137 16
138 16
139 6
140 320
141 160
142 16
143 16
144 16
145 16
146 6
147 320
148 80
149 10
150 320
151 80
152 16
153 14
154 320
155 80
156 16
157 16
158 16
159 2
160 160
161 16
162 16
163 8
164 320
165 320
166 80
167 16
168 4
169 320
170 320
171 16
172 16
173 16
174 12
175 320
176 16
177 16
178 16
179 16
180 6
181 320
182 10
183 320
184 160
185 10
186 160
187 80
188 16
189 16
190 16
191 12
192 320
193 320
194 80
195 16
196 14
197 320
198 320
199 80
200 320
201 160
202 80
203 16
204 14
205 320
206 160
207 80
208 16
209 16
210 8
211 320
212 16
213 16
214 16
215 12
216 320
217 160
218 16
219 16
220 16
221 2
222 160
223 80
224 16
225 14
DEPOT_SECTION
1
-1
EOF