SDVRP instances/custom_instances/p01_2_splitx10_0.sol
224 -14 13 15 95 93 92 94 21 22 23 24 20 -17 19 18 16 117 119 118 116 114 115 89 90 91 -26 25 54 53 55 56 145 139 141 144 142 143 140 166 165 160 159 161 162 -35 31 34 33 32 86 85 88 87 58 59 57 37 39 38 36 40 -41 42 46 47 44 43 45 9 11 10 12 8 7 2 3 5 4 6 1 61 -63 60 62 120 122 121 123 136 137 134 133 138 135 201 200 199 203 202 -66 64 65 217 216 218 215 219 220 -71 73 72 30 27 29 28 221 224 223 222 -78 81 80 79 77 74 76 75 111 110 182 -83 82 84 108 109 107 167 164 163 -96 101 99 102 98 100 97 125 124 126 -103 105 104 106 158 155 153 154 156 157 147 146 148 -112 113 48 52 50 51 49 67 68 70 69 180 181 152 151 149 150 183 184 -127 129 131 132 130 128 169 168 173 172 170 171 -188 185 189 187 197 198 179 177 175 176 178 174 204 206 207 209 208 205 -190 186 196 193 192 194 195 191 214 210 212 211 213 0 





OBJ=
1429.365
BEST_KNOWN=
0.000